N = 33;
MinK = 5;
Capacity = 100;

X = array1d(0..33, [28, 76, 67, 84, 73, 67, 68, 68, 76, 91, 80, 0, 73, 76, 92, 69, 90, 71, 83, 79, 74, 68, 72, 80, 91, 71, 78, 85, 75, 87, 0, 71, 74, 76]);
Y = array1d(0..33, [57, 46, 5, 22, 6, 72, 74, 6, 7, 30, 0, 25, 13, 81, 30, 80, 30, 77, 47, 47, 6, 6, 0, 0, 25, 73, 10, 24, 80, 24, 7, 78, 0, 0]);

Demands = [6, 12, 2, 24, 3, 18, 21, 14, 69, 1, 13, 2, 2, 7, 7, 1, 23, 19, 14, 8, 11, 4, 8, 24, 12, 9, 4, 19, 15, 2, 2, 15, 66];
